CMD:
./solvers/bin/cadical --plain --no-reduce -t 1600 ./data/cnfs//dspfilters_fastfir_second-p21/dspfilters_fastfir_second-p21.84.cnf

c --- [ banner ] -------------------------------------------------------------
c 
c CaDiCaL SAT Solver
c Copyright (c) 2016-2024
c A. Biere, M. Fleury, N. Froleyks, K. Fazekas, F. Pollitt, T. Faller
c JKU Linz, University of Freiburg, TU Wien
c 
c Version 2.1.3 5296d3d2a9bf48c154ab2acb5e44625776d821bf
c g++ (Gentoo 12.3.1_p20230526 p2) 12.3.1 20230526 -Wall -Wextra -O3 -DNDEBUG
c Sat Aug 9 07:26:21 PDT 2025 Linux cedar2.int.cedar.computecanada.ca 5.14.0-362.24.2.el9_3.x86_64 x86_64
c 
c --- [ limit ] --------------------------------------------------------------
c 
c setting time limit to 1600 seconds real time (due to '-t 1600')
c 
c --- [ parsing input ] ------------------------------------------------------
c 
c reading DIMACS file from './data/cnfs//dspfilters_fastfir_second-p21/dspfilters_fastfir_second-p21.84.cnf'
c opening file to read './data/cnfs//dspfilters_fastfir_second-p21/dspfilters_fastfir_second-p21.84.cnf'
c found 'p cnf 2488591 7276755' header
c parsed 7276755 clauses in 1.47 seconds process time
c 
c --- [ options ] ------------------------------------------------------------
c 
c   --compact=false                (different from default 'true')
c   --decompose=false              (different from default 'true')
c   --deduplicate=false            (different from default 'true')
c   --elim=false                   (different from default 'true')
c   --probe=false                  (different from default 'true')
c   --reduce=false                 (different from default 'true')
c   --subsume=false                (different from default 'true')
c   --ternary=false                (different from default 'true')
c   --transred=false               (different from default 'true')
c   --vivify=false                 (different from default 'true')
c 
c --- [ solving ] ------------------------------------------------------------
c 
c time measured in process time since initialization
c 
c  seconds    reductions  redundant   irredundant
c          MB     restarts       trail         variables
c            level   conflicts       glue            remaining
c 
c *  1.47 1112  0 0   0    0    0  0% 0 7126822 2337299 94%
c {  2.56 1147  0 0   0    0    0  0% 0 7126822 2337299 94%
c i  2.57 1147 95 0   0    8    6  6% 2 7126822 2337294 94%
c i  2.57 1147 99 0   0   11    7  6% 2 7126822 2337182 94%
c i  2.57 1147 100 0   0   15    8  6% 2 7126822 2337070 94%
c i  2.57 1147 99 0   0   18    9  6% 1 7126822 2336958 94%
c i  2.57 1147 95 0   0   20   10  6% 1 7126822 2336843 94%
c i  2.83 1148 96 0  27  161  131  8% 4 7126822 2335862 94%
c i  2.86 1148 57 0  27  290  239  8% 3 7126822 2317978 93%
c i  2.87 1148 46 0  27  368  297  8% 3 7126822 2293942 92%
c i  2.87 1148 46 0  27  369  297  8% 3 7126822 2293902 92%
c }  2.87 1148 46 0  27  371  297  8% 3 7126822 2292689 92%
c 0  2.87 1148 46 0  27  371  297  8% 3 7126822 2292689 92%
c 
c --- [ result ] -------------------------------------------------------------
c 
s UNSATISFIABLE
c 
c --- [ run-time profiling ] -------------------------------------------------
c 
c process time taken by individual solving procedures
c (percentage relative to process time for solving)
c 
c         1.47  105.43% parse
c         1.40   99.99% search
c         1.09   77.71% lucky
c         0.31   22.28% unstable
c         0.00    0.00% simplify
c   =================================
c         1.40   48.67% solve
c 
c last line shows process time for solving
c (percentage relative to total process time)
c 
c --- [ statistics ] ---------------------------------------------------------
c 
c chronological:               125        33.69 %  of conflicts
c conflicts:                   371       265.60    per second
c decisions:                  2995      2144.15    per second
c fixed:                    194096         7.80 %  of all variables
c learned:                     356        95.96 %  per conflict
c learned_lits:               5690       100.00 %  learned literals
c minimized:                     0         0.00 %  learned literals
c shrunken:                   2278        40.04 %  learned literals
c minishrunken:               1185        20.83 %  learned literals
c otfs:                          6         1.62 %  of conflict
c propagations:            2956455         2.12 M  per second
c restarts:                     27        13.74    interval
c subsumed:                     49         0.00 %  of all clauses
c strengthened:                  6         0.00 %  of all clauses
c 
c seconds are measured in process time for solving
c 
c --- [ resources ] ----------------------------------------------------------
c 
c total process time since initialization:         2.87    seconds
c total real time since initialization:            2.89    seconds
c maximum resident set size of process:         1147.16    MB
c 
c --- [ shutting down ] ------------------------------------------------------
c 
c exit 20
